
  26    0


   0  11 2 3 4 5 6 7 9 10 11 24 25 
   3   5 23 15 14 12 8 
   2   5 22 17 16 14 12 
   7   5 21 20 15 14 12 
  10   3 18 17 12 
  10   2 18 15 
   1   2 19 13 
   8   1 13 
   9   1 16 
   6   1 13 
   7   1 12 
   8   1 26
   8   1 26
   4   1 26
   5   1 26
   6   1 26
   1   1 26
   5   1 26
   7   1 26
   6   1 26
  10   1 26
   1   1 26
   5   1 26
   2   1 26
   8   1 26
   0   0 
